Optimizer called with the following parameters:
{'focal_plane_mask': {'field_stop_radius': None,
                      'grayscale': True,
                      'num_pix': 150,
                      'radius': 3.6},
 'image': {'bandwidth': 0.15,
           'contrast': 10,
           'iwa': 3.5,
           'num_wavelengths': 5,
           'owa': 14.0,
           'resolution': 2},
 'instrument': {'inst_name': 'USORT'},
 'lyot_stop': {'alignment_tolerance': 0,
               'filename': 'USORT/LS_USORT_hex_ID0000_OD0990_ovsamp16_N0128.fits',
               'num_lyot_stops': 1},
 'method': {'edge_width_for_prior': 2,
            'ending_scale': 1,
            'force_no_hermitian_symmetry': False,
            'force_no_x_mirror_symmetry': False,
            'force_no_y_mirror_symmetry': False,
            'initial_throughput_estimate': 1,
            'maximize_planet_throughput': True,
            'num_throughput_iterations': 2,
            'starting_scale': 1},
 'pupil': {'N': 128,
           'filename': 'USORT/TelAp_USORT_offaxis_ovsamp16_N0128.fits'},
 'solver': {'crossover': 0,
            'method': 2,
            'num_threads': 0}}

File organization:
{'analysis_dir': '/user/bnickson/GitHub/LUVex_TelAps/aplc_optimization/surveys/usort_offaxis_survey_N0128_telserv3/FPM36_IWA35/analysis',
 'drivers_dir': '/user/bnickson/GitHub/LUVex_TelAps/aplc_optimization/surveys/usort_offaxis_survey_N0128_telserv3/FPM36_IWA35/drivers',
 'input_files_dir': '/user/bnickson/GitHub/LUVex_TelAps/aplc_optimization/masks',
 'log_dir': '/user/bnickson/GitHub/LUVex_TelAps/aplc_optimization/surveys/usort_offaxis_survey_N0128_telserv3/FPM36_IWA35/logs',
 'solution_dir': '/user/bnickson/GitHub/LUVex_TelAps/aplc_optimization/surveys/usort_offaxis_survey_N0128_telserv3/FPM36_IWA35/solutions',
 'survey_dir': '/user/bnickson/GitHub/LUVex_TelAps/aplc_optimization/surveys/usort_offaxis_survey_N0128_telserv3/FPM36_IWA35'}

Telescope pupil:
   Mirror symmetry in x: yes
   Mirror symmetry in y: yes

Lyot stop #0:
   Mirror symmetry in x: yes
Lyot stop #0:
   Mirror symmetry in y: yes

Complete APLC:
   Mirror symmetry in x: yes
   Mirror symmetry in y: yes

Starting optimization at scale 1 with 2726 variables and 2895 constraints.
Creating model...
Set parameter Username
Academic license - for non-commercial use only - expires 2024-10-25
Set parameter Crossover to value 0
Set parameter Method to value 2
Calculating and adding constraints...
Wavelength 1/5; Variable 1000/2726
Wavelength 1/5; Variable 2000/2726
Wavelength 2/5; Variable 1000/2726
Wavelength 2/5; Variable 2000/2726
Wavelength 3/5; Variable 1000/2726
Wavelength 3/5; Variable 2000/2726
Wavelength 4/5; Variable 1000/2726
Wavelength 4/5; Variable 2000/2726
Wavelength 5/5; Variable 1000/2726
Wavelength 5/5; Variable 2000/2726
Start optimization...
Gurobi Optimizer version 10.0.3 build v10.0.3rc0 (linux64)

CPU model: Intel(R) Xeon(R) Gold 6146 CPU @ 3.20GHz, instruction set [SSE2|AVX|AVX2|AVX512]
Thread count: 24 physical cores, 48 logical processors, using up to 24 threads

Optimize a model with 5790 rows, 2726 columns and 15783540 nonzeros
Model fingerprint: 0xa7cf2a11
Coefficient statistics:
  Matrix range     [2e-12, 6e-04]
  Objective range  [4e-03, 1e+00]
  Bounds range     [1e+00, 1e+00]
  RHS range        [1e-05, 1e-05]
Presolve removed 0 rows and 0 columns (presolve time = 5s) ...
Presolve time: 5.63s
Presolved: 2726 rows, 8516 columns, 15786266 nonzeros
Error: invalid user locale; possible fix is to set the system environment
       variable 'LC_ALL' to a valid locale (e.g., to 'C')
Ordering time: 0.05s

Barrier statistics:
 AA' NZ     : 3.714e+06
 Factor NZ  : 3.717e+06 (roughly 34 MB of memory)
 Factor Ops : 6.756e+09 (less than 1 second per iteration)
 Threads    : 24

                  Objective                Residual
Iter       Primal          Dual         Primal    Dual     Compl     Time
   0   5.63906739e+03  0.00000000e+00  0.00e+00 0.00e+00  9.77e-01     8s
   1   3.05303752e+03  7.06341472e+02  0.00e+00 1.48e-01  3.46e-01     8s
   2   2.09886643e+03  1.27123122e+03  0.00e+00 6.48e-02  1.23e-01     8s
   3   1.92138895e+03  1.37723257e+03  0.00e+00 4.46e-02  7.92e-02     9s
   4   1.81184626e+03  1.38338193e+03  0.00e+00 4.20e-02  6.84e-02     9s
   5   1.72063071e+03  1.38821684e+03  0.00e+00 3.65e-02  5.77e-02    10s
   6   1.60376527e+03  1.39665736e+03  0.00e+00 3.14e-02  4.69e-02    10s
   7   1.49911828e+03  1.39368268e+03  0.00e+00 2.63e-02  3.68e-02    11s
   8   1.43261034e+03  1.38450591e+03  0.00e+00 2.36e-02  3.12e-02    11s
   9   1.37167713e+03  1.37299093e+03  0.00e+00 2.13e-02  2.63e-02    11s
  10   1.32775720e+03  1.35712729e+03  0.00e+00 1.90e-02  2.19e-02    12s
  11   1.30641106e+03  1.33122636e+03  0.00e+00 1.57e-02  1.84e-02    12s
  12   1.28517826e+03  1.32508029e+03  0.00e+00 1.51e-02  1.66e-02    13s
  13   1.24206020e+03  1.30895189e+03  0.00e+00 1.34e-02  1.24e-02    13s
  14   1.21696485e+03  1.28467756e+03  0.00e+00 1.10e-02  9.38e-03    14s
  15   1.20176940e+03  1.26988563e+03  0.00e+00 9.65e-03  7.66e-03    14s
  16   1.19903213e+03  1.26734591e+03  0.00e+00 9.41e-03  7.35e-03    15s
  17   1.19698661e+03  1.26251854e+03  0.00e+00 8.98e-03  6.98e-03    15s
  18   1.18182018e+03  1.25037000e+03  0.00e+00 7.94e-03  5.32e-03    15s
  19   1.18027611e+03  1.24776345e+03  0.00e+00 7.71e-03  5.11e-03    16s
  20   1.17481699e+03  1.23264600e+03  0.00e+00 6.40e-03  4.12e-03    16s
  21   1.17288203e+03  1.23090216e+03  0.00e+00 6.24e-03  3.90e-03    17s
  22   1.16871163e+03  1.20497289e+03  0.00e+00 4.05e-03  2.69e-03    17s
  23   1.16626666e+03  1.20430543e+03  0.00e+00 3.99e-03  2.48e-03    18s
  24   1.16235024e+03  1.19788184e+03  0.00e+00 3.44e-03  2.04e-03    18s
  25   1.16096907e+03  1.19207211e+03  0.00e+00 3.01e-03  1.82e-03    19s
  26   1.15952394e+03  1.19015780e+03  0.00e+00 2.87e-03  1.69e-03    19s
  27   1.15597237e+03  1.18583134e+03  0.00e+00 2.55e-03  1.37e-03    20s
  28   1.15464062e+03  1.17652040e+03  0.00e+00 1.90e-03  1.09e-03    20s
  29   1.15273866e+03  1.16896933e+03  0.00e+00 1.39e-03  8.22e-04    21s
  30   1.15116310e+03  1.16310922e+03  0.00e+00 1.00e-03  5.91e-04    21s
  31   1.14974732e+03  1.16110403e+03  0.00e+00 8.70e-04  4.39e-04    22s
  32   1.14910450e+03  1.15760965e+03  0.00e+00 6.38e-04  3.13e-04    22s
  33   1.14852859e+03  1.15434068e+03  0.00e+00 4.18e-04  1.91e-04    23s
  34   1.14831755e+03  1.15198043e+03  0.00e+00 2.66e-04  1.24e-04    23s
  35   1.14814924e+03  1.15160196e+03  0.00e+00 2.42e-04  1.04e-04    24s
  36   1.14802623e+03  1.15024344e+03  2.49e-06 1.56e-04  6.84e-05    24s
  37   1.14796930e+03  1.14969691e+03  4.72e-06 1.21e-04  5.33e-05    25s
  38   1.14793966e+03  1.14894612e+03  9.86e-06 7.36e-05  3.61e-05    25s
  39   1.14786353e+03  1.14857044e+03  2.99e-05 4.99e-05  2.24e-05    26s
  40   1.14785670e+03  1.14851753e+03  3.52e-05 4.65e-05  2.07e-05    27s
  41   1.14785626e+03  1.14850812e+03  4.66e-05 4.59e-05  2.05e-05    27s
  42   1.14785338e+03  1.14845620e+03  4.58e-05 4.26e-05  1.92e-05    28s
  43   1.14785095e+03  1.14844777e+03  5.21e-05 4.21e-05  1.88e-05    29s
  44   1.14784327e+03  1.14842530e+03  5.12e-05 4.07e-05  1.77e-05    29s
  45   1.14784238e+03  1.14841836e+03  5.17e-05 4.02e-05  1.75e-05    30s
  46   1.14783991e+03  1.14835702e+03  8.63e-05 3.63e-05  1.60e-05    31s
  47   1.14783983e+03  1.14835703e+03  1.09e-04 3.63e-05  1.60e-05    32s
  48   1.14783966e+03  1.14835372e+03  1.07e-04 3.61e-05  1.59e-05    32s
  49   1.14783962e+03  1.14835201e+03  1.08e-04 3.60e-05  1.21e-05    33s
  50   1.14783911e+03  1.14834408e+03  1.08e-04 3.55e-05  1.18e-05    34s
  51   1.14783911e+03  1.14834407e+03  1.36e-04 3.55e-05  1.18e-05    35s
  52   1.14783959e+03  1.14834344e+03  1.38e-04 3.54e-05  1.18e-05    35s
  53   1.14783952e+03  1.14833862e+03  1.31e-04 3.51e-05  1.18e-05    36s
  54   1.14783806e+03  1.14832353e+03  1.40e-04 3.42e-05  1.14e-05    37s
  55   1.14783832e+03  1.14832338e+03  1.58e-04 3.42e-05  1.14e-05    38s
  56   1.14783735e+03  1.14830496e+03  1.66e-04 3.30e-05  1.11e-05    39s
  57   1.14783733e+03  1.14830444e+03  1.59e-04 3.29e-05  1.11e-05    40s
  58   1.14783713e+03  1.14830443e+03  1.77e-04 3.29e-05  1.11e-05    40s
  59   1.14783738e+03  1.14830443e+03  1.95e-04 3.29e-05  1.11e-05    41s
  60   1.14783718e+03  1.14830442e+03  1.98e-04 3.29e-05  1.11e-05    42s
  61   1.14783714e+03  1.14830404e+03  1.85e-04 3.29e-05  1.11e-05    43s
  62   1.14783663e+03  1.14830403e+03  2.73e-04 3.29e-05  1.11e-05    44s
  63   1.14783637e+03  1.14829261e+03  2.74e-04 3.22e-05  1.09e-05    44s

Barrier performed 63 iterations in 44.37 seconds (35.28 work units)
Sub-optimal termination - objective 1.14783952e+03

Optimization finished!
Restarting optimization for throughput iteration 1...
Gurobi Optimizer version 10.0.3 build v10.0.3rc0 (linux64)

CPU model: Intel(R) Xeon(R) Gold 6146 CPU @ 3.20GHz, instruction set [SSE2|AVX|AVX2|AVX512]
Thread count: 24 physical cores, 48 logical processors, using up to 24 threads

Optimize a model with 5790 rows, 2726 columns and 15783540 nonzeros
Model fingerprint: 0xd76b2611
Coefficient statistics:
  Matrix range     [2e-12, 6e-04]
  Objective range  [4e-03, 1e+00]
  Bounds range     [1e+00, 1e+00]
  RHS range        [5e-06, 5e-06]
Presolve removed 0 rows and 0 columns (presolve time = 5s) ...
Presolve time: 5.59s
Presolved: 2726 rows, 8516 columns, 15786266 nonzeros
Ordering time: 0.04s

Barrier statistics:
 AA' NZ     : 3.714e+06
 Factor NZ  : 3.717e+06 (roughly 34 MB of memory)
 Factor Ops : 6.756e+09 (less than 1 second per iteration)
 Threads    : 24

                  Objective                Residual
Iter       Primal          Dual         Primal    Dual     Compl     Time
   0   5.56381863e+03  0.00000000e+00  0.00e+00 0.00e+00  9.68e-01     8s
   1   2.98735433e+03  7.00260465e+02  0.00e+00 1.49e-01  3.44e-01     8s
   2   2.04288550e+03  1.22360086e+03  0.00e+00 7.10e-02  1.32e-01     9s
   3   1.87807491e+03  1.32796863e+03  0.00e+00 5.20e-02  9.14e-02     9s
   4   1.77622604e+03  1.35072924e+03  0.00e+00 4.74e-02  7.79e-02    10s
   5   1.68681833e+03  1.34243897e+03  0.00e+00 4.36e-02  7.10e-02    10s
   6   1.55621401e+03  1.34924155e+03  0.00e+00 3.85e-02  6.03e-02    10s
   7   1.43158442e+03  1.33839657e+03  0.00e+00 3.42e-02  5.05e-02    11s
   8   1.32654258e+03  1.33065006e+03  0.00e+00 3.16e-02  4.30e-02    11s
   9   1.29584635e+03  1.31672506e+03  0.00e+00 2.97e-02  4.02e-02    12s
  10   1.29021120e+03  1.31240912e+03  0.00e+00 2.92e-02  3.95e-02    12s
  11   1.25537468e+03  1.29935790e+03  0.00e+00 2.69e-02  3.58e-02    12s
  12   1.22735415e+03  1.27037223e+03  0.00e+00 2.31e-02  3.14e-02    13s
  13   1.19158833e+03  1.25929316e+03  0.00e+00 2.17e-02  2.82e-02    13s
  14   1.16678571e+03  1.25517193e+03  0.00e+00 2.12e-02  2.64e-02    14s
  15   1.14872909e+03  1.23506909e+03  0.00e+00 1.93e-02  2.38e-02    14s
  16   1.13229051e+03  1.22892284e+03  0.00e+00 1.87e-02  2.23e-02    14s
  17   1.10268538e+03  1.20847870e+03  0.00e+00 1.68e-02  1.92e-02    15s
  18   1.06828989e+03  1.19362150e+03  0.00e+00 1.55e-02  1.57e-02    16s
  19   1.05040569e+03  1.17613678e+03  0.00e+00 1.41e-02  1.36e-02    17s
  20   1.04363248e+03  1.17219986e+03  0.00e+00 1.38e-02  1.29e-02    17s
  21   1.03931972e+03  1.16128640e+03  0.00e+00 1.29e-02  1.20e-02    18s
  22   1.03302949e+03  1.14680479e+03  0.00e+00 1.18e-02  1.08e-02    19s
  23   1.02824156e+03  1.13308499e+03  0.00e+00 1.07e-02  9.73e-03    19s
  24   1.02052772e+03  1.12698686e+03  0.00e+00 1.02e-02  8.90e-03    20s
  25   1.01764343e+03  1.11929377e+03  0.00e+00 9.66e-03  8.38e-03    21s
  26   1.00895022e+03  1.10813277e+03  0.00e+00 8.92e-03  7.40e-03    21s
  27   9.98697251e+02  1.08739787e+03  0.00e+00 7.46e-03  5.76e-03    22s
  28   9.93814214e+02  1.07112347e+03  0.00e+00 6.36e-03  4.83e-03    23s
  29   9.89054501e+02  1.06027971e+03  0.00e+00 5.66e-03  4.06e-03    24s
  30   9.87842532e+02  1.05636386e+03  0.00e+00 5.41e-03  3.84e-03    24s
  31   9.84570516e+02  1.05349786e+03  0.00e+00 5.23e-03  3.47e-03    25s
  32   9.82808774e+02  1.04354099e+03  0.00e+00 4.60e-03  3.05e-03    26s
  33   9.81093863e+02  1.03865637e+03  0.00e+00 4.28e-03  2.69e-03    26s
  34   9.79500596e+02  1.02885153e+03  0.00e+00 3.68e-03  2.37e-03    27s
  35   9.77203439e+02  1.02691950e+03  0.00e+00 3.55e-03  2.24e-03    28s
  36   9.76759869e+02  1.02455303e+03  0.00e+00 3.41e-03  2.16e-03    29s
  37   9.75894827e+02  1.02348574e+03  0.00e+00 3.34e-03  2.09e-03    30s
  38   9.75523459e+02  1.02065232e+03  0.00e+00 3.17e-03  1.99e-03    31s
  39   9.74947991e+02  1.01937969e+03  0.00e+00 3.10e-03  1.92e-03    31s
  40   9.73065818e+02  1.01415564e+03  0.00e+00 2.78e-03  1.64e-03    33s
  41   9.72588830e+02  1.01032307e+03  0.00e+00 2.56e-03  1.50e-03    33s
  42   9.71636550e+02  1.00476500e+03  0.00e+00 2.23e-03  1.30e-03    34s
  43   9.70018698e+02  9.98205774e+02  0.00e+00 1.85e-03  1.01e-03    35s
  44   9.69463503e+02  9.93039193e+02  0.00e+00 1.55e-03  8.53e-04    35s
  45   9.69203241e+02  9.89518017e+02  0.00e+00 1.34e-03  7.49e-04    36s
  46   9.67862748e+02  9.86349955e+02  0.00e+00 1.16e-03  5.51e-04    37s
  47   9.67354568e+02  9.81191004e+02  0.00e+00 8.57e-04  3.94e-04    38s
  48   9.67033198e+02  9.77889052e+02  0.00e+00 6.67e-04  2.99e-04    38s
  49   9.66842861e+02  9.73805454e+02  0.00e+00 4.33e-04  2.00e-04    39s
  50   9.66719628e+02  9.72478835e+02  0.00e+00 3.56e-04  1.62e-04    40s
  51   9.66589944e+02  9.70530764e+02  0.00e+00 2.44e-04  1.13e-04    40s
  52   9.66398358e+02  9.69009749e+02  5.25e-06 1.58e-04  6.65e-05    41s
  53   9.66312590e+02  9.67884947e+02  1.21e-05 9.35e-05  3.75e-05    42s
  54   9.66301635e+02  9.67719829e+02  1.31e-05 8.41e-05  3.34e-05    43s
  55   9.66277875e+02  9.67133265e+02  2.41e-05 5.09e-05  2.05e-05    44s
  56   9.66266908e+02  9.66842584e+02  2.35e-05 3.43e-05  1.40e-05    45s
  57   9.66259645e+02  9.66656442e+02  2.03e-05 2.38e-05  9.87e-06    46s
  58   9.66254445e+02  9.66510150e+02  3.30e-05 1.54e-05  6.54e-06    47s
  59   9.66253305e+02  9.66480866e+02  3.23e-05 1.37e-05  5.86e-06    48s
  60   9.66253086e+02  9.66467716e+02  5.15e-05 1.30e-05  5.60e-06    49s
  61   9.66252619e+02  9.66467719e+02  3.93e-05 1.30e-05  5.60e-06    50s
  62   9.66252001e+02  9.66452361e+02  5.81e-05 1.21e-05  5.25e-06    51s
  63   9.66251251e+02  9.66435733e+02  6.50e-05 1.12e-05  3.41e-06    52s
  64   9.66250625e+02  9.66431190e+02  1.12e-04 1.09e-05  3.31e-06    53s
  65   9.66250605e+02  9.66430684e+02  1.12e-04 1.09e-05  3.30e-06    54s
  66   9.66250433e+02  9.66424588e+02  1.05e-04 1.06e-05  3.22e-06    55s
  67   9.66250177e+02  9.66424572e+02  1.35e-04 1.06e-05  3.17e-06    56s
  68   9.66250449e+02  9.66424199e+02  1.52e-04 1.05e-05  3.16e-06    57s
  69   9.66250434e+02  9.66423368e+02  1.30e-04 1.05e-05  3.15e-06    58s
  70   9.66250563e+02  9.66423001e+02  1.69e-04 1.05e-05  3.13e-06    60s
  71   9.66250512e+02  9.66402425e+02  1.77e-04 9.30e-06  2.87e-06    61s
  72   9.66249453e+02  9.66389084e+02  2.85e-04 8.54e-06  2.63e-06    63s
  73   9.66248202e+02  9.66376622e+02  2.65e-04 7.84e-06  2.42e-06    64s
  74   9.66248153e+02  9.66375099e+02  2.54e-04 7.75e-06  2.40e-06    65s
  75   9.66247706e+02  9.66366656e+02  1.87e-04 7.27e-06  2.26e-06    67s
  76   9.66247787e+02  9.66366138e+02  2.02e-04 7.24e-06  2.25e-06    68s
  77   9.66247811e+02  9.66365031e+02  2.24e-04 7.18e-06  2.23e-06    69s
  78   9.66248088e+02  9.66364983e+02  2.27e-04 7.18e-06  2.23e-06    70s
  79   9.66247844e+02  9.66364764e+02  2.39e-04 7.17e-06  2.23e-06    71s
  80   9.66247863e+02  9.66362703e+02  2.33e-04 7.05e-06  2.20e-06    72s
  81   9.66247697e+02  9.66362159e+02  2.38e-04 7.02e-06  2.19e-06    74s
  82   9.66248040e+02  9.66362013e+02  2.53e-04 7.01e-06  2.19e-06    75s
  83   9.66247012e+02  9.66360178e+02  2.60e-04 6.91e-06  2.15e-06    77s
  84   9.66246991e+02  9.66359997e+02  2.55e-04 6.90e-06  2.14e-06    78s
  85   9.66246920e+02  9.66359958e+02  2.52e-04 6.90e-06  2.14e-06    80s

Barrier performed 85 iterations in 79.80 seconds (45.18 work units)
Sub-optimal termination - objective 9.66251251e+02

/user/bnickson/GitHub/LUVex_TelAps/aplc_optimization/surveys/usort_offaxis_survey_N0128_telserv3/FPM36_IWA35/drivers/07_USORT_N128_FPM360M0150_IWA0350_OWA01400_C10_BW15_Nlam5_LS_ID_ID00_ODOD09_ls_0_ovsamp16_N.py:102: DeprecationWarning: circular_aperture is deprecated. Its new name is make_circular_aperture.
  dark_zone_mask = circular_aperture(img_owa * 2)(focal_grid) - circular_aperture(img_iwa * 2)(focal_grid)
/user/bnickson/GitHub/LUVex_TelAps/aplc_optimization/surveys/usort_offaxis_survey_N0128_telserv3/FPM36_IWA35/drivers/07_USORT_N128_FPM360M0150_IWA0350_OWA01400_C10_BW15_Nlam5_LS_ID_ID00_ODOD09_ls_0_ovsamp16_N.py:110: DeprecationWarning: circular_aperture is deprecated. Its new name is make_circular_aperture.
  focal_plane_mask = 1 - evaluate_supersampled(circular_aperture(2 * fpm_radius), focal_mask_grid, 8)
WARNING: VerifyWarning: Keyword name 'LS_ALIGN_TOl' is greater than 8 characters or contains characters not allowed by the FITS standard; a HIERARCH card will be created. [astropy.io.fits.card]
WARNING: VerifyWarning: Keyword name 'LS_NUM_STOPS' is greater than 8 characters or contains characters not allowed by the FITS standard; a HIERARCH card will be created. [astropy.io.fits.card]
WARNING: VerifyWarning: Keyword name 'PROG_START' is greater than 8 characters or contains characters not allowed by the FITS standard; a HIERARCH card will be created. [astropy.io.fits.card]
WARNING: VerifyWarning: Keyword name 'PROG_EDGE' is greater than 8 characters or contains characters not allowed by the FITS standard; a HIERARCH card will be created. [astropy.io.fits.card]
WARNING: VerifyWarning: Keyword name 'THRPT_ITER' is greater than 8 characters or contains characters not allowed by the FITS standard; a HIERARCH card will be created. [astropy.io.fits.card]
WARNING: VerifyWarning: Keyword name 'THRPT_ESTIM' is greater than 8 characters or contains characters not allowed by the FITS standard; a HIERARCH card will be created. [astropy.io.fits.card]
WARNING: VerifyWarning: Keyword name 'MAX_THRPT' is greater than 8 characters or contains characters not allowed by the FITS standard; a HIERARCH card will be created. [astropy.io.fits.card]
WARNING: VerifyWarning: Keyword name 'SLV_THRDS' is greater than 8 characters or contains characters not allowed by the FITS standard; a HIERARCH card will be created. [astropy.io.fits.card]
WARNING: VerifyWarning: Keyword name 'SLV_XOVER' is greater than 8 characters or contains characters not allowed by the FITS standard; a HIERARCH card will be created. [astropy.io.fits.card]
Optimization finished!
